170945.57,51.03,63.28
181814.08,47.98,59.49
174385.43,50.02,62.03
171863.65,50.75,62.94
173436.15,50.29,62.37
152682.43,57.13,70.84
158525.08,55.02,68.23
194259.84,44.9,55.68
179684.99,48.54,60.2
174550.11,49.97,61.97
178050.6,48.99,60.75
173730.24,50.21,62.26
171888.35,50.75,62.93
174863.29,49.88,61.86
150340.45,58.02,71.95
164170.64,53.13,65.89
156189.89,55.85,69.25
168527.73,51.76,64.18
172839.75,50.47,62.58
160249.35,54.43,67.5
